\* Problem: test3 *\

Minimize
 _C163: + 3 p_3_2 + 5 p_6_4 + 4 p_5_3 + 200 u_2_1 + 200 u_7_1 + 3 p_5_2
 + 400 u_6_3 + 400 u_0_3 + 100 u_2_0 + 2 p_7_1 + 100 u_1_0 + 500 u_7_4
 + 400 u_7_3 + 2 p_5_1 + 500 u_1_4 + p_1_0 + 2 p_0_1 + 4 p_3_3
 + 500 u_8_4 + p_4_0 + 100 u_6_0 + 500 u_4_4 + 5 p_4_4 + 500 u_0_4
 + 300 u_3_2 + 2 p_8_1 + 300 u_1_2 + 3 p_7_2 + 100 u_4_0 + 4 p_8_3
 + 300 u_8_2 + 5 p_5_4 + 200 u_5_1 + 400 u_2_3 + 4 p_4_3 + 2 p_4_1
 + 200 u_8_1 + 500 u_3_4 + 3 p_2_2 + 3 p_4_2 + p_7_0 + 2 p_3_1
 + 400 u_3_3 + 400 u_1_3 + 100 u_0_0 + 400 u_8_3 + 100 u_8_0 + 3 p_0_2
 + 500 u_6_4 + p_2_0 + 5 p_3_4 + 300 u_0_2 + 200 u_4_1 + 4 p_2_3
 + 300 u_7_2 + 2 p_6_1 + 5 p_0_4 + 4 p_0_3 + 200 u_3_1 + 5 p_2_4
 + 400 u_4_3 + 300 u_6_2 + 3 p_6_2 + 100 u_3_0 + 2 p_2_1 + 200 u_6_1
 + p_0_0 + 300 u_4_2 + 3 p_8_2 + 500 u_2_4 + 3 p_1_2 + 300 u_5_2
 + 5 p_7_4 + 100 u_7_0 + 4 p_1_3 + p_3_0 + 4 p_6_3 + p_6_0 + 200 u_1_1
 + 5 p_1_4 + 500 u_5_4 + 5 p_8_4 + 200 u_0_1 + 2 p_1_1 + p_5_0 + p_8_0
 + 300 u_2_2 + 100 u_5_0 + 4 p_7_3 + 400 u_5_3

Subject To
 _C120: + d_5_4 - d_6_4 + u_5_4 >= 0
 _C144: + s_4 - s_5 >= 0
 _C155: + s_1 - s_2 + p_1_0 + p_1_2 + p_1_3 + p_1_4 + p_1_1 = 103.947
 _C154: - s_1 + p_0_1 + p_0_2 + p_0_4 + p_0_3 + p_0_0 = 30
 _C82: - 10 d_8_0 + p_8_0 >= 0
 _C83: + p_8_1 - 30 d_8_1 <= 0
 _C80: + p_7_4 - 10 d_7_4 >= 0
 _C81: - 30 d_8_0 + p_8_0 <= 0
 _C86: - 10 d_8_2 + p_8_2 >= 0
 _C87: + p_8_3 - 30 d_8_3 <= 0
 _C84: + p_8_1 - 10 d_8_1 >= 0
 _C85: - 30 d_8_2 + p_8_2 <= 0
 _C145: + s_4 - s_5 <= 100
 _C88: + p_8_3 - 10 d_8_3 >= 0
 _C89: - 30 d_8_4 + p_8_4 <= 0
 _C115: - d_5_4 + u_4_4 + d_4_4 >= 0
 _C15: + p_1_2 - 30 d_1_2 <= 0
 _C117: + u_5_1 + d_5_1 - d_6_1 >= 0
 _C116: - d_6_0 + d_5_0 + u_5_0 >= 0
 _C111: - d_5_0 + u_4_0 + d_4_0 >= 0
 _C110: + d_3_4 + u_3_4 - d_4_4 >= 0
 _C113: - d_5_2 + d_4_2 + u_4_2 >= 0
 _C14: + p_1_1 - 10 d_1_1 >= 0
 _C151: - s_8 + s_7 <= 100
 _C150: - s_8 + s_7 >= 0
 _C153: + s_8 - s_9 <= 100
 _C152: + s_8 - s_9 >= 0
 _C119: - d_6_3 + u_5_3 + d_5_3 >= 0
 _C118: + d_5_2 + u_5_2 - d_6_2 >= 0
 _C157: + p_3_2 + p_3_3 - s_4 + p_3_1 + p_3_4 + s_3 + p_3_0 = 140.63
 _C156: + s_2 + p_2_2 + p_2_0 + p_2_3 + p_2_4 + p_2_1 - s_3 = 34.996
 _C73: + p_7_1 - 30 d_7_1 <= 0
 _C72: + p_7_0 - 10 d_7_0 >= 0
 _C71: + p_7_0 - 30 d_7_0 <= 0
 _C70: + p_6_4 - 10 d_6_4 >= 0
 _C77: - 30 d_7_3 + p_7_3 <= 0
 _C76: + p_7_2 - 10 d_7_2 >= 0
 _C75: + p_7_2 - 30 d_7_2 <= 0
 _C74: + p_7_1 - 10 d_7_1 >= 0
 _C79: + p_7_4 - 30 d_7_4 <= 0
 _C78: - 10 d_7_3 + p_7_3 >= 0
 _C148: - s_7 + s_6 >= 0
 _C149: - s_7 + s_6 <= 100
 _C99: - d_2_3 + u_1_3 + d_1_3 >= 0
 _C98: + u_1_2 - d_2_2 + d_1_2 >= 0
 _C146: - s_6 + s_5 >= 0
 _C95: + u_0_4 - d_1_4 + d_0_4 >= 0
 _C94: + u_0_3 + d_0_3 - d_1_3 >= 0
 _C97: - d_2_1 + u_1_1 + d_1_1 >= 0
 _C96: + u_1_0 + d_1_0 - d_2_0 >= 0
 _C91: + d_0_0 + u_0_0 - d_1_0 >= 0
 _C90: - 10 d_8_4 + p_8_4 >= 0
 _C93: + d_0_2 + u_0_2 - d_1_2 >= 0
 _C92: + d_0_1 + u_0_1 - d_1_1 >= 0
 _C106: + d_3_0 - d_4_0 + u_3_0 >= 0
 _C107: + d_3_1 - d_4_1 + u_3_1 >= 0
 _C104: + u_2_3 + d_2_3 - d_3_3 >= 0
 _C105: + d_2_4 - d_3_4 + u_2_4 >= 0
 _C102: + u_2_1 - d_3_1 + d_2_1 >= 0
 _C103: + d_2_2 - d_3_2 + u_2_2 >= 0
 _C100: + u_1_4 - d_2_4 + d_1_4 >= 0
 _C101: + u_2_0 - d_3_0 + d_2_0 >= 0
 _C142: - s_4 + s_3 >= 0
 _C19: - 30 d_1_4 + p_1_4 <= 0
 _C140: + s_2 - s_3 >= 0
 _C141: + s_2 - s_3 <= 100
 _C112: + d_4_1 + u_4_1 - d_5_1 >= 0
 _C147: - s_6 + s_5 <= 100
 _C108: + u_3_2 - d_4_2 + d_3_2 >= 0
 _C54: + p_5_1 - 10 d_5_1 >= 0
 _C124: + u_6_3 + d_6_3 - d_7_3 >= 0
 _C48: - 10 d_4_3 + p_4_3 >= 0
 _C49: + p_4_4 - 30 d_4_4 <= 0
 _C46: - 10 d_4_2 + p_4_2 >= 0
 _C47: - 30 d_4_3 + p_4_3 <= 0
 _C44: + p_4_1 - 10 d_4_1 >= 0
 _C45: - 30 d_4_2 + p_4_2 <= 0
 _C42: + p_4_0 - 10 d_4_0 >= 0
 _C43: + p_4_1 - 30 d_4_1 <= 0
 _C40: - 10 d_3_4 + p_3_4 >= 0
 _C41: + p_4_0 - 30 d_4_0 <= 0
 _C127: + u_7_1 + d_7_1 - d_8_1 >= 0
 _C28: - 10 d_2_3 + p_2_3 >= 0
 _C29: - 30 d_2_4 + p_2_4 <= 0
 _C24: - 10 d_2_1 + p_2_1 >= 0
 _C25: + p_2_2 - 30 d_2_2 <= 0
 _C26: + p_2_2 - 10 d_2_2 >= 0
 _C27: - 30 d_2_3 + p_2_3 <= 0
 _C20: - 10 d_1_4 + p_1_4 >= 0
 _C21: + p_2_0 - 30 d_2_0 <= 0
 _C22: + p_2_0 - 10 d_2_0 >= 0
 _C23: - 30 d_2_1 + p_2_1 <= 0
 _C143: - s_4 + s_3 <= 100
 _C122: - d_7_1 + u_6_1 + d_6_1 >= 0
 _C109: - d_4_3 + u_3_3 + d_3_3 >= 0
 _C158: + p_4_0 + p_4_4 + s_4 + p_4_3 + p_4_1 + p_4_2 - s_5 = 11.0595
 _C133: - d_9_2 + u_8_2 + d_8_2 >= 0
 _C132: + u_8_1 + d_8_1 - d_9_1 >= 0
 _C131: - d_9_0 + u_8_0 + d_8_0 >= 0
 _C130: + u_7_4 - d_8_4 + d_7_4 >= 0
 _C137: - s_1 <= 50
 _C114: + d_4_3 + u_4_3 - d_5_3 >= 0
 _C135: + u_8_4 + d_8_4 - d_9_4 >= 0
 _C134: + d_8_3 + u_8_3 - d_9_3 >= 0
 _C139: + s_1 - s_2 <= 100
 _C138: + s_1 - s_2 >= 0
 _C59: - 30 d_5_4 + p_5_4 <= 0
 _C58: + p_5_3 - 10 d_5_3 >= 0
 _C17: - 30 d_1_3 + p_1_3 <= 0
 _C16: + p_1_2 - 10 d_1_2 >= 0
 _C11: + p_1_0 - 30 d_1_0 <= 0
 _C10: + p_0_4 - 10 d_0_4 >= 0
 _C13: + p_1_1 - 30 d_1_1 <= 0
 _C12: + p_1_0 - 10 d_1_0 >= 0
 _C51: - 30 d_5_0 + p_5_0 <= 0
 _C50: + p_4_4 - 10 d_4_4 >= 0
 _C53: + p_5_1 - 30 d_5_1 <= 0
 _C52: - 10 d_5_0 + p_5_0 >= 0
 _C55: + p_5_2 - 30 d_5_2 <= 0
 _C18: - 10 d_1_3 + p_1_3 >= 0
 _C57: + p_5_3 - 30 d_5_3 <= 0
 _C56: + p_5_2 - 10 d_5_2 >= 0
 _C159: + p_5_3 + p_5_2 + p_5_1 + p_5_4 - s_6 + p_5_0 + s_5 = 148.932
 _C121: + d_6_0 + u_6_0 - d_7_0 >= 0
 _C39: - 30 d_3_4 + p_3_4 <= 0
 _C38: + p_3_3 - 10 d_3_3 >= 0
 _C37: + p_3_3 - 30 d_3_3 <= 0
 _C36: + p_3_2 - 10 d_3_2 >= 0
 _C35: + p_3_2 - 30 d_3_2 <= 0
 _C34: - 10 d_3_1 + p_3_1 >= 0
 _C33: - 30 d_3_1 + p_3_1 <= 0
 _C32: - 10 d_3_0 + p_3_0 >= 0
 _C31: - 30 d_3_0 + p_3_0 <= 0
 _C30: - 10 d_2_4 + p_2_4 >= 0
 _C160: + p_6_4 - s_7 + s_6 + p_6_1 + p_6_2 + p_6_3 + p_6_0 = 19.3955
 _C161: - s_8 + p_7_1 + s_7 + p_7_2 + p_7_0 + p_7_4 + p_7_3 = 124.964
 _C162: + s_8 - s_9 + p_8_1 + p_8_3 + p_8_2 + p_8_4 + p_8_0 = 56.1019
 _C126: + d_7_0 - d_8_0 + u_7_0 >= 0
 _C136: - s_1 >= -50
 _C9: + p_0_4 - 30 d_0_4 <= 0
 _C8: - 10 d_0_3 + p_0_3 >= 0
 _C128: - d_8_2 + d_7_2 + u_7_2 >= 0
 _C129: + u_7_3 + d_7_3 - d_8_3 >= 0
 _C1: - 30 d_0_0 + p_0_0 <= 0
 _C125: + u_6_4 + d_6_4 - d_7_4 >= 0
 _C3: - 30 d_0_1 + p_0_1 <= 0
 _C2: - 10 d_0_0 + p_0_0 >= 0
 _C5: - 30 d_0_2 + p_0_2 <= 0
 _C4: - 10 d_0_1 + p_0_1 >= 0
 _C7: - 30 d_0_3 + p_0_3 <= 0
 _C6: - 10 d_0_2 + p_0_2 >= 0
 _C60: - 10 d_5_4 + p_5_4 >= 0
 _C61: - 30 d_6_0 + p_6_0 <= 0
 _C62: - 10 d_6_0 + p_6_0 >= 0
 _C63: + p_6_1 - 30 d_6_1 <= 0
 _C64: + p_6_1 - 10 d_6_1 >= 0
 _C65: + p_6_2 - 30 d_6_2 <= 0
 _C66: + p_6_2 - 10 d_6_2 >= 0
 _C67: - 30 d_6_3 + p_6_3 <= 0
 _C68: - 10 d_6_3 + p_6_3 >= 0
 _C69: + p_6_4 - 30 d_6_4 <= 0
 _C123: - d_7_2 + u_6_2 + d_6_2 >= 0

Bounds
 0 <= p_3_2 <= 30
 0 <= p_6_4 <= 30
 0 <= d_0_2 <= 1
 0 <= p_5_3 <= 30
 0 <= d_6_0 <= 1
 0 <= p_5_2 <= 30
 0 <= d_0_1 <= 1
 0 <= d_3_0 <= 1
 0 <= d_6_3 <= 1
 0 <= d_5_0 <= 1
 0 <= d_5_4 <= 1
 0 <= p_7_1 <= 30
 0 <= d_0_0 <= 1
 0 <= p_5_1 <= 30
 0 <= p_1_0 <= 30
 0 <= p_0_1 <= 30
 0 <= p_3_3 <= 30
 0 <= d_3_1 <= 1
 0 <= d_7_3 <= 1
 0 <= p_4_0 <= 30
 0 <= p_4_4 <= 30
 0 <= d_4_3 <= 1
 0 <= d_2_4 <= 1
 0 <= d_5_2 <= 1
 0 <= d_9_2 <= 1
 0 <= p_8_1 <= 30
 0 <= p_7_2 <= 30
 0 <= d_4_2 <= 1
 0 <= p_8_3 <= 30
 0 <= p_5_4 <= 30
 0 <= p_4_3 <= 30
 0 <= d_0_3 <= 1
 0 <= p_4_1 <= 30
 0 <= d_4_1 <= 1
 0 <= d_8_4 <= 1
 0 <= d_2_3 <= 1
 0 <= d_9_0 <= 1
 0 <= d_3_4 <= 1
 0 <= p_2_2 <= 30
 0 <= p_4_2 <= 30
 0 <= p_7_0 <= 30
 0 <= d_4_0 <= 1
 0 <= p_3_1 <= 30
 0 <= d_8_3 <= 1
 0 <= p_0_2 <= 30
 0 <= p_2_0 <= 30
 0 <= p_3_4 <= 30
 0 <= p_2_3 <= 30
 0 <= d_8_2 <= 1
 0 <= d_2_1 <= 1
 0 <= d_5_1 <= 1
 0 <= d_7_1 <= 1
 0 <= d_7_2 <= 1
 0 <= d_9_4 <= 1
 0 <= p_6_1 <= 30
 0 <= p_0_4 <= 30
 0 <= p_0_3 <= 30
 0 <= d_1_0 <= 1
 0 <= d_3_3 <= 1
 0 <= d_8_1 <= 1
 0 <= d_2_0 <= 1
 0 <= p_2_4 <= 30
 0 <= d_7_0 <= 1
 0 <= p_6_2 <= 30
 0 <= p_2_1 <= 30
 0 <= d_8_0 <= 1
 0 <= d_1_4 <= 1
 0 <= d_9_1 <= 1
 0 <= d_6_4 <= 1
 0 <= p_0_0 <= 30
 0 <= p_8_2 <= 30
 0 <= d_2_2 <= 1
 0 <= p_1_2 <= 30
 0 <= d_1_3 <= 1
 0 <= p_7_4 <= 30
 0 <= p_1_3 <= 30
 0 <= d_7_4 <= 1
 0 <= p_3_0 <= 30
 0 <= p_6_3 <= 30
 0 <= d_0_4 <= 1
 0 <= p_6_0 <= 30
 0 <= d_1_2 <= 1
 0 <= p_1_4 <= 30
 0 <= d_6_2 <= 1
 0 <= d_3_2 <= 1
 0 <= p_8_4 <= 30
 0 <= p_1_1 <= 30
 0 <= p_5_0 <= 30
 0 <= p_8_0 <= 30
 0 <= d_1_1 <= 1
 0 <= p_7_3 <= 30
 0 <= d_6_1 <= 1
 0 <= d_9_3 <= 1
 0 <= d_5_3 <= 1
 0 <= d_4_4 <= 1

Generals
 d_0_2
 d_6_0
 d_0_1
 d_3_0
 d_6_3
 d_5_0
 d_5_4
 d_0_0
 d_3_1
 d_7_3
 d_4_3
 d_2_4
 d_5_2
 d_9_2
 d_4_2
 d_0_3
 d_4_1
 d_8_4
 d_2_3
 d_9_0
 d_3_4
 d_4_0
 d_8_3
 d_8_2
 d_2_1
 d_5_1
 d_7_1
 d_7_2
 d_9_4
 d_1_0
 d_3_3
 d_8_1
 d_2_0
 d_7_0
 d_8_0
 d_1_4
 d_9_1
 d_6_4
 d_2_2
 d_1_3
 d_7_4
 d_0_4
 d_1_2
 d_6_2
 d_3_2
 d_1_1
 d_6_1
 d_9_3
 d_5_3
 d_4_4

End
